50
100
100
100
99
98
98
97
96
92
91
91
91
87
86
85
83
83
81
79
78
78
75
75
75
74
73
73
70
66
66
65
64
64
63
62
61
60
59
56
55
54
46
45
44
41
37
35
34
32
31
30
